nbV = 17;
nbE = 20;
map = [|false,false,false,false,false,false,false,false,false,false,false,false,false,true,false,false,false,false,false,false
|false,false,false,false,false,false,false,false,true,true,false,false,false,false,false,false,false,false,false,false
|false,false,false,false,false,false,false,false,false,false,false,false,false,false,true,true,false,false,false,false
|false,false,false,false,false,false,false,false,false,false,false,false,false,false,false,false,false,false,true,true
|false,false,true,true,false,false,false,false,false,false,false,false,false,false,false,false,false,false,false,false
|false,false,false,false,false,false,false,false,false,false,false,false,true,true,false,false,false,false,false,false
|false,false,false,false,false,false,true,true,false,false,false,false,false,false,false,false,false,false,false,false
|false,false,false,false,false,false,false,false,false,false,false,false,false,false,false,false,true,true,false,false
|true,true,false,false,false,false,false,false,false,false,false,false,false,false,false,false,false,false,false,false
|false,false,false,false,false,false,false,false,false,false,false,false,false,false,false,false,true,false,false,false
|false,true,true,false,true,false,false,false,false,false,false,false,false,false,false,false,false,false,false,false
|false,false,false,true,true,true,false,false,false,true,false,false,false,false,false,false,false,false,false,false
|true,false,false,false,false,true,false,true,false,false,false,false,false,false,false,false,false,false,false,false
|false,false,false,false,false,false,true,false,false,false,true,true,false,false,false,false,false,false,false,false
|false,false,false,false,false,false,false,false,false,false,true,false,true,false,false,false,false,false,false,true
|false,false,false,false,false,false,false,false,true,false,false,false,false,false,false,true,false,true,false,false
|false,false,false,false,false,false,false,false,false,false,false,true,false,false,true,false,false,false,true,false
|];
endnodes = [|false,false,false,false,false,false,false,false,true,false,false,false,true,false,false,false,false
|false,false,false,false,false,false,false,false,true,false,true,false,false,false,false,false,false
|false,false,false,false,true,false,false,false,false,false,true,false,false,false,false,false,false
|false,false,false,false,true,false,false,false,false,false,false,true,false,false,false,false,false
|false,false,false,false,false,false,false,false,false,false,true,true,false,false,false,false,false
|false,false,false,false,false,false,false,false,false,false,false,true,true,false,false,false,false
|false,false,false,false,false,false,true,false,false,false,false,false,false,true,false,false,false
|false,false,false,false,false,false,true,false,false,false,false,false,true,false,false,false,false
|false,true,false,false,false,false,false,false,false,false,false,false,false,false,false,true,false
|false,true,false,false,false,false,false,false,false,false,false,true,false,false,false,false,false
|false,false,false,false,false,false,false,false,false,false,false,false,false,true,true,false,false
|false,false,false,false,false,false,false,false,false,false,false,false,false,true,false,false,true
|false,false,false,false,false,true,false,false,false,false,false,false,false,false,true,false,false
|true,false,false,false,false,true,false,false,false,false,false,false,false,false,false,false,false
|false,false,true,false,false,false,false,false,false,false,false,false,false,false,false,false,true
|false,false,true,false,false,false,false,false,false,false,false,false,false,false,false,true,false
|false,false,false,false,false,false,false,true,false,true,false,false,false,false,false,false,false
|false,false,false,false,false,false,false,true,false,false,false,false,false,false,false,true,false
|false,false,false,true,false,false,false,false,false,false,false,false,false,false,false,false,true
|false,false,false,true,false,false,false,false,false,false,false,false,false,false,true,false,false
|];
terminals = {1,2,3,4,5,6,7,8,9,10};
link_cost = [3493954,4351627,1605002,2882580,1277578,2135251,1455208,2539886,2054034,1396272,1264131,1554744,712677,1204560,2153901,2080882,1722508,696780,3010864,3301477];
